# Solution for model cost
# Objective value = 2.6205699999642462e+02
f 2.6205699999642462e+02
x(1,2,1) 0
x(1,2,2) 0
x(1,3,1) 0
x(1,3,2) 0
x(1,4,1) 0
x(1,4,2) 0
x(1,5,1) 0
x(1,5,2) 0
x(1,6,1) 1
x(1,6,2) 0
x(1,7,1) 0
x(1,7,2) 0
x(1,8,1) 0
x(1,8,2) 0
x(1,9,1) 0
x(1,9,2) 0
x(1,10,1) 0
x(1,10,2) 1
x(1,11,1) 0
x(1,11,2) 0
x(1,12,1) 0
x(1,12,2) 0
x(1,13,1) 0
x(1,13,2) 0
x(1,14,1) 0
x(1,14,2) 0
x(1,15,1) 0
x(1,15,2) 0
x(1,16,1) 0
x(1,16,2) 0
x(1,17,1) 0
x(1,17,2) 0
x(1,18,1) 0
x(1,18,2) 0
x(1,19,1) 0
x(1,19,2) 0
x(1,20,1) 0
x(1,20,2) 0
x(1,21,1) 0
x(1,21,2) 0
x(1,22,1) 0
x(1,22,2) 0
x(1,23,1) 0
x(1,23,2) 0
x(1,24,1) 0
x(1,24,2) 0
x(1,25,1) 0
x(1,25,2) 0
x(1,26,1) 0
x(1,26,2) 0
x(1,27,1) 0
x(1,27,2) 0
x(1,28,1) 0
x(1,28,2) 0
x(1,29,1) 0
x(1,29,2) 0
x(1,30,1) 0
x(1,30,2) 0
x(1,31,1) 0
x(1,31,2) 0
x(1,32,1) 0
x(1,32,2) 0
x(1,33,1) 0
x(1,33,2) 0
x(2,1,1) 0
x(2,1,2) 0
x(2,3,1) 0
x(2,3,2) 0
x(2,4,1) 0
x(2,4,2) 0
x(2,5,1) 0
x(2,5,2) 0
x(2,6,1) 0
x(2,6,2) 0
x(2,7,1) 0
x(2,7,2) 0
x(2,8,1) 0
x(2,8,2) 0
x(2,9,1) 0
x(2,9,2) 0
x(2,10,1) 0
x(2,10,2) 0
x(2,11,1) 0
x(2,11,2) 0
x(2,12,1) 0
x(2,12,2) 0
x(2,13,1) 0
x(2,13,2) 0
x(2,14,1) 0
x(2,14,2) 0
x(2,15,1) 0
x(2,15,2) 0
x(2,16,1) 0
x(2,16,2) 0
x(2,17,1) 0
x(2,17,2) 0
x(2,18,1) 0
x(2,18,2) 9.9999994093170541e-01
x(2,19,1) 0
x(2,19,2) 0
x(2,20,1) 0
x(2,20,2) 0
x(2,21,1) 0
x(2,21,2) 0
x(2,22,1) 0
x(2,22,2) 0
x(2,23,1) 0
x(2,23,2) 5.9066653247813082e-08
x(2,24,1) 0
x(2,24,2) 0
x(2,25,1) 0
x(2,25,2) 0
x(2,26,1) 0
x(2,26,2) 0
x(2,27,1) 0
x(2,27,2) 0
x(2,28,1) 0
x(2,28,2) 0
x(2,29,1) 0
x(2,29,2) 0
x(2,30,1) 0
x(2,30,2) 0
x(2,31,1) 0
x(2,31,2) 0
x(2,32,1) 0
x(2,32,2) 0
x(2,33,1) 0
x(2,33,2) 0
x(2,34,1) 0
x(2,34,2) 0
x(3,1,1) 0
x(3,1,2) 0
x(3,2,1) 0
x(3,2,2) 0
x(3,4,1) 0
x(3,4,2) 0
x(3,5,1) 0
x(3,5,2) 0
x(3,6,1) 0
x(3,6,2) 0
x(3,7,1) 0
x(3,7,2) 0
x(3,8,1) 0
x(3,8,2) 0
x(3,9,1) 0
x(3,9,2) 9.9999998384250643e-01
x(3,10,1) 0
x(3,10,2) 0
x(3,11,1) 0
x(3,11,2) 0
x(3,12,1) 0
x(3,12,2) 0
x(3,13,1) 0
x(3,13,2) 0
x(3,14,1) 0
x(3,14,2) 0
x(3,15,1) 0
x(3,15,2) 0
x(3,16,1) 0
x(3,16,2) 0
x(3,17,1) 0
x(3,17,2) 1.6149768475020029e-08
x(3,18,1) 0
x(3,18,2) 0
x(3,19,1) 0
x(3,19,2) 0
x(3,20,1) 0
x(3,20,2) 0
x(3,21,1) 0
x(3,21,2) 0
x(3,22,1) 0
x(3,22,2) 0
x(3,23,1) 0
x(3,23,2) 0
x(3,24,1) 0
x(3,24,2) 0
x(3,25,1) 0
x(3,25,2) 0
x(3,26,1) 0
x(3,26,2) 0
x(3,27,1) 0
x(3,27,2) 0
x(3,28,1) 0
x(3,28,2) 0
x(3,29,1) 0
x(3,29,2) 0
x(3,30,1) 0
x(3,30,2) 0
x(3,31,1) 0
x(3,31,2) 0
x(3,32,1) 0
x(3,32,2) 0
x(3,33,1) 0
x(3,33,2) 0
x(3,34,1) 0
x(3,34,2) 0
x(4,1,1) 0
x(4,1,2) 0
x(4,2,1) 0
x(4,2,2) 0
x(4,3,1) 0
x(4,3,2) 0
x(4,5,1) 0
x(4,5,2) 0
x(4,6,1) 0
x(4,6,2) 0
x(4,7,1) 0
x(4,7,2) 0
x(4,8,1) 0
x(4,8,2) 0
x(4,9,1) 0
x(4,9,2) 0
x(4,10,1) 0
x(4,10,2) 0
x(4,11,1) 0
x(4,11,2) 0
x(4,12,1) 0
x(4,12,2) 0
x(4,13,1) 0
x(4,13,2) 0
x(4,14,1) 0
x(4,14,2) 0
x(4,15,1) 0
x(4,15,2) 0
x(4,16,1) 0
x(4,16,2) 0
x(4,17,1) 0
x(4,17,2) 0
x(4,18,1) 0
x(4,18,2) 0
x(4,19,1) 0
x(4,19,2) 0
x(4,20,1) 0
x(4,20,2) 0
x(4,21,1) 0
x(4,21,2) 0
x(4,22,1) 0
x(4,22,2) 0
x(4,23,1) 0
x(4,23,2) 0
x(4,24,1) 0
x(4,24,2) 0
x(4,25,1) 0
x(4,25,2) 0
x(4,26,1) 0
x(4,26,2) 0
x(4,27,1) 0
x(4,27,2) 0
x(4,28,1) 0
x(4,28,2) 0
x(4,29,1) 0
x(4,29,2) 0
x(4,30,1) 0
x(4,30,2) 0
x(4,31,1) 0
x(4,31,2) 0
x(4,32,1) 0
x(4,32,2) 0
x(4,33,1) 0
x(4,33,2) 1.0000000000000004e+00
x(4,34,1) 0
x(4,34,2) 0
x(5,1,1) 0
x(5,1,2) 0
x(5,2,1) 0
x(5,2,2) 0
x(5,3,1) 0
x(5,3,2) 0
x(5,4,1) 0
x(5,4,2) 0
x(5,6,1) 0
x(5,6,2) 0
x(5,7,1) 0
x(5,7,2) 0
x(5,8,1) 0
x(5,8,2) 0
x(5,9,1) 0
x(5,9,2) 0
x(5,10,1) 0
x(5,10,2) 0
x(5,11,1) 0
x(5,11,2) 0
x(5,12,1) 0
x(5,12,2) 0
x(5,13,1) 0
x(5,13,2) 0
x(5,14,1) 0
x(5,14,2) 0
x(5,15,1) 0
x(5,15,2) 0
x(5,16,1) 0
x(5,16,2) 0
x(5,17,1) 0
x(5,17,2) 0
x(5,18,1) 0
x(5,18,2) 0
x(5,19,1) 0
x(5,19,2) 0
x(5,20,1) 0
x(5,20,2) 0
x(5,21,1) 2.3902678172818000e-08
x(5,21,2) 9.9999996016269022e-01
x(5,22,1) 0
x(5,22,2) 0
x(5,23,1) 0
x(5,23,2) 0
x(5,24,1) 0
x(5,24,2) 0
x(5,25,1) 0
x(5,25,2) 0
x(5,26,1) 0
x(5,26,2) 0
x(5,27,1) 0
x(5,27,2) 0
x(5,28,1) 0
x(5,28,2) 0
x(5,29,1) 1.5934420035884518e-08
x(5,29,2) 0
x(5,30,1) 0
x(5,30,2) 0
x(5,31,1) 0
x(5,31,2) 0
x(5,32,1) 0
x(5,32,2) 0
x(5,33,1) 0
x(5,33,2) 0
x(5,34,1) 0
x(5,34,2) 0
x(6,1,1) 0
x(6,1,2) 0
x(6,2,1) 0
x(6,2,2) 0
x(6,3,1) 0
x(6,3,2) 0
x(6,4,1) 0
x(6,4,2) 0
x(6,5,1) 0
x(6,5,2) 0
x(6,7,1) 0
x(6,7,2) 0
x(6,8,1) 0
x(6,8,2) 0
x(6,9,1) 0
x(6,9,2) 0
x(6,10,1) 0
x(6,10,2) 0
x(6,11,1) 0
x(6,11,2) 0
x(6,12,1) 0
x(6,12,2) 0
x(6,13,1) 0
x(6,13,2) 0
x(6,14,1) 0
x(6,14,2) 0
x(6,15,1) 0
x(6,15,2) 0
x(6,16,1) 0
x(6,16,2) 0
x(6,17,1) 0
x(6,17,2) 0
x(6,18,1) 0
x(6,18,2) 0
x(6,19,1) 0
x(6,19,2) 0
x(6,20,1) 0
x(6,20,2) 0
x(6,21,1) 0
x(6,21,2) 0
x(6,22,1) 1
x(6,22,2) 0
x(6,23,1) 0
x(6,23,2) 0
x(6,24,1) 0
x(6,24,2) 0
x(6,25,1) 0
x(6,25,2) 0
x(6,26,1) 0
x(6,26,2) 0
x(6,27,1) 0
x(6,27,2) 0
x(6,28,1) 0
x(6,28,2) 0
x(6,29,1) 0
x(6,29,2) 0
x(6,30,1) 0
x(6,30,2) 0
x(6,31,1) 0
x(6,31,2) 0
x(6,32,1) 0
x(6,32,2) 0
x(6,33,1) 0
x(6,33,2) 0
x(6,34,1) 0
x(6,34,2) 0
x(7,1,1) 0
x(7,1,2) 0
x(7,2,1) 0
x(7,2,2) 0
x(7,3,1) 0
x(7,3,2) 0
x(7,4,1) 0
x(7,4,2) 9.9999988186336408e-01
x(7,5,1) 0
x(7,5,2) 0
x(7,6,1) 0
x(7,6,2) 0
x(7,8,1) 0
x(7,8,2) 0
x(7,9,1) 0
x(7,9,2) 1.6157727048118324e-08
x(7,10,1) 0
x(7,10,2) 0
x(7,11,1) 0
x(7,11,2) 0
x(7,12,1) 0
x(7,12,2) 0
x(7,13,1) 0
x(7,13,2) 0
x(7,14,1) 0
x(7,14,2) 0
x(7,15,1) 0
x(7,15,2) 0
x(7,16,1) 0
x(7,16,2) 0
x(7,17,1) 0
x(7,17,2) 0
x(7,18,1) 0
x(7,18,2) 1.9329171838856461e-08
x(7,19,1) 0
x(7,19,2) 0
x(7,20,1) 0
x(7,20,2) 0
x(7,21,1) 0
x(7,21,2) 0
x(7,22,1) 0
x(7,22,2) 0
x(7,23,1) 0
x(7,23,2) 0
x(7,24,1) 0
x(7,24,2) 0
x(7,25,1) 0
x(7,25,2) 8.2649996397567303e-08
x(7,26,1) 0
x(7,26,2) 0
x(7,27,1) 0
x(7,27,2) 0
x(7,28,1) 0
x(7,28,2) 0
x(7,29,1) 0
x(7,29,2) 0
x(7,30,1) 0
x(7,30,2) 0
x(7,31,1) 0
x(7,31,2) 0
x(7,32,1) 0
x(7,32,2) 0
x(7,33,1) 0
x(7,33,2) 0
x(7,34,1) 0
x(7,34,2) 0
x(8,1,1) 0
x(8,1,2) 0
x(8,2,1) 0
x(8,2,2) 0
x(8,3,1) 0
x(8,3,2) 0
x(8,4,1) 0
x(8,4,2) 0
x(8,5,1) 0
x(8,5,2) 0
x(8,6,1) 0
x(8,6,2) 0
x(8,7,1) 0
x(8,7,2) 0
x(8,9,1) 0
x(8,9,2) 0
x(8,10,1) 0
x(8,10,2) 0
x(8,11,1) 0
x(8,11,2) 0
x(8,12,1) 0
x(8,12,2) 0
x(8,13,1) 7.9675595010542111e-09
x(8,13,2) 0
x(8,14,1) 0
x(8,14,2) 0
x(8,15,1) 0
x(8,15,2) 0
x(8,16,1) 0
x(8,16,2) 7.9675593919889501e-09
x(8,17,1) 0
x(8,17,2) 0
x(8,18,1) 0
x(8,18,2) 0
x(8,19,1) 0
x(8,19,2) 0
x(8,20,1) 0
x(8,20,2) 0
x(8,21,1) 0
x(8,21,2) 0
x(8,22,1) 0
x(8,22,2) 0
x(8,23,1) 0
x(8,23,2) 0
x(8,24,1) 0
x(8,24,2) 0
x(8,25,1) 0
x(8,25,2) 0
x(8,26,1) 0
x(8,26,2) 0
x(8,27,1) 0
x(8,27,2) 0
x(8,28,1) 0
x(8,28,2) 0
x(8,29,1) 0
x(8,29,2) 0
x(8,30,1) 9.9999998406565194e-01
x(8,30,2) 0
x(8,31,1) 0
x(8,31,2) 0
x(8,32,1) 0
x(8,32,2) 0
x(8,33,1) 0
x(8,33,2) 0
x(8,34,1) 0
x(8,34,2) 0
x(9,1,1) 0
x(9,1,2) 0
x(9,2,1) 0
x(9,2,2) 0
x(9,3,1) 0
x(9,3,2) 0
x(9,4,1) 0
x(9,4,2) 0
x(9,5,1) 0
x(9,5,2) 0
x(9,6,1) 0
x(9,6,2) 0
x(9,7,1) 0
x(9,7,2) 0
x(9,8,1) 0
x(9,8,2) 0
x(9,10,1) 0
x(9,10,2) 0
x(9,11,1) 0
x(9,11,2) 0
x(9,12,1) 0
x(9,12,2) 0
x(9,13,1) 0
x(9,13,2) 0
x(9,14,1) 0
x(9,14,2) 0
x(9,15,1) 0
x(9,15,2) 0
x(9,16,1) 0
x(9,16,2) 0
x(9,17,1) 0
x(9,17,2) 0
x(9,18,1) 0
x(9,18,2) 0
x(9,19,1) 0
x(9,19,2) 1
x(9,20,1) 0
x(9,20,2) 0
x(9,21,1) 0
x(9,21,2) 0
x(9,22,1) 0
x(9,22,2) 0
x(9,23,1) 0
x(9,23,2) 0
x(9,24,1) 0
x(9,24,2) 0
x(9,25,1) 0
x(9,25,2) 0
x(9,26,1) 0
x(9,26,2) 0
x(9,27,1) 0
x(9,27,2) 0
x(9,28,1) 0
x(9,28,2) 0
x(9,29,1) 0
x(9,29,2) 0
x(9,30,1) 0
x(9,30,2) 0
x(9,31,1) 0
x(9,31,2) 0
x(9,32,1) 0
x(9,32,2) 0
x(9,33,1) 0
x(9,33,2) 0
x(9,34,1) 0
x(9,34,2) 0
x(10,1,1) 0
x(10,1,2) 0
x(10,2,1) 0
x(10,2,2) 0
x(10,3,1) 0
x(10,3,2) 0
x(10,4,1) 0
x(10,4,2) 0
x(10,5,1) 0
x(10,5,2) 0
x(10,6,1) 0
x(10,6,2) 0
x(10,7,1) 0
x(10,7,2) 0
x(10,8,1) 0
x(10,8,2) 0
x(10,9,1) 0
x(10,9,2) 0
x(10,11,1) 0
x(10,11,2) 1
x(10,12,1) 0
x(10,12,2) 0
x(10,13,1) 0
x(10,13,2) 0
x(10,14,1) 0
x(10,14,2) 0
x(10,15,1) 0
x(10,15,2) 0
x(10,16,1) 0
x(10,16,2) 0
x(10,17,1) 0
x(10,17,2) 0
x(10,18,1) 0
x(10,18,2) 0
x(10,19,1) 0
x(10,19,2) 0
x(10,20,1) 0
x(10,20,2) 0
x(10,21,1) 0
x(10,21,2) 0
x(10,22,1) 0
x(10,22,2) 0
x(10,23,1) 0
x(10,23,2) 0
x(10,24,1) 0
x(10,24,2) 0
x(10,25,1) 0
x(10,25,2) 0
x(10,26,1) 0
x(10,26,2) 0
x(10,27,1) 0
x(10,27,2) 0
x(10,28,1) 0
x(10,28,2) 0
x(10,29,1) 0
x(10,29,2) 0
x(10,30,1) 0
x(10,30,2) 0
x(10,31,1) 0
x(10,31,2) 0
x(10,32,1) 0
x(10,32,2) 0
x(10,33,1) 0
x(10,33,2) 0
x(10,34,1) 0
x(10,34,2) 0
x(11,1,1) 0
x(11,1,2) 0
x(11,2,1) 0
x(11,2,2) 0
x(11,3,1) 0
x(11,3,2) 0
x(11,4,1) 0
x(11,4,2) 0
x(11,5,1) 0
x(11,5,2) 0
x(11,6,1) 0
x(11,6,2) 0
x(11,7,1) 0
x(11,7,2) 0
x(11,8,1) 0
x(11,8,2) 0
x(11,9,1) 0
x(11,9,2) 0
x(11,10,1) 0
x(11,10,2) 0
x(11,12,1) 0
x(11,12,2) 0
x(11,13,1) 0
x(11,13,2) 0
x(11,14,1) 0
x(11,14,2) 0
x(11,15,1) 0
x(11,15,2) 0
x(11,16,1) 0
x(11,16,2) 0
x(11,17,1) 0
x(11,17,2) 0
x(11,18,1) 0
x(11,18,2) 0
x(11,19,1) 0
x(11,19,2) 0
x(11,20,1) 0
x(11,20,2) 0
x(11,21,1) 0
x(11,21,2) 0
x(11,22,1) 0
x(11,22,2) 0
x(11,23,1) 0
x(11,23,2) 0
x(11,24,1) 0
x(11,24,2) 0
x(11,25,1) 0
x(11,25,2) 0
x(11,26,1) 0
x(11,26,2) 1
x(11,27,1) 0
x(11,27,2) 0
x(11,28,1) 0
x(11,28,2) 0
x(11,29,1) 0
x(11,29,2) 0
x(11,30,1) 0
x(11,30,2) 0
x(11,31,1) 0
x(11,31,2) 0
x(11,32,1) 0
x(11,32,2) 0
x(11,33,1) 0
x(11,33,2) 0
x(11,34,1) 0
x(11,34,2) 0
x(12,1,1) 0
x(12,1,2) 0
x(12,2,1) 0
x(12,2,2) 0
x(12,3,1) 0
x(12,3,2) 0
x(12,4,1) 0
x(12,4,2) 0
x(12,5,1) 0
x(12,5,2) 0
x(12,6,1) 0
x(12,6,2) 0
x(12,7,1) 0
x(12,7,2) 0
x(12,8,1) 0
x(12,8,2) 0
x(12,9,1) 0
x(12,9,2) 0
x(12,10,1) 0
x(12,10,2) 0
x(12,11,1) 0
x(12,11,2) 0
x(12,13,1) 0
x(12,13,2) 0
x(12,14,1) 0
x(12,14,2) 0
x(12,15,1) 0
x(12,15,2) 0
x(12,16,1) 0
x(12,16,2) 0
x(12,17,1) 0
x(12,17,2) 0
x(12,18,1) 0
x(12,18,2) 0
x(12,19,1) 0
x(12,19,2) 0
x(12,20,1) 0
x(12,20,2) 0
x(12,21,1) 0
x(12,21,2) 0
x(12,22,1) 0
x(12,22,2) 0
x(12,23,1) 0
x(12,23,2) 0
x(12,24,1) 9.9999997609732183e-01
x(12,24,2) 7.9663889948189641e-09
x(12,25,1) 0
x(12,25,2) 0
x(12,26,1) 0
x(12,26,2) 0
x(12,27,1) 0
x(12,27,2) 0
x(12,28,1) 0
x(12,28,2) 0
x(12,29,1) 0
x(12,29,2) 0
x(12,30,1) 0
x(12,30,2) 1.5935118891086120e-08
x(12,31,1) 0
x(12,31,2) 0
x(12,32,1) 0
x(12,32,2) 0
x(12,33,1) 0
x(12,33,2) 0
x(12,34,1) 0
x(12,34,2) 0
x(13,1,1) 0
x(13,1,2) 0
x(13,2,1) 0
x(13,2,2) 0
x(13,3,1) 0
x(13,3,2) 0
x(13,4,1) 0
x(13,4,2) 0
x(13,5,1) 0
x(13,5,2) 0
x(13,6,1) 0
x(13,6,2) 0
x(13,7,1) 0
x(13,7,2) 0
x(13,8,1) 0
x(13,8,2) 0
x(13,9,1) 0
x(13,9,2) 0
x(13,10,1) 0
x(13,10,2) 0
x(13,11,1) 0
x(13,11,2) 0
x(13,12,1) 0
x(13,12,2) 0
x(13,14,1) 0
x(13,14,2) 0
x(13,15,1) 0
x(13,15,2) 0
x(13,16,1) 0
x(13,16,2) 0
x(13,17,1) 0
x(13,17,2) 0
x(13,18,1) 0
x(13,18,2) 0
x(13,19,1) 0
x(13,19,2) 0
x(13,20,1) 0
x(13,20,2) 0
x(13,21,1) 0
x(13,21,2) 0
x(13,22,1) 0
x(13,22,2) 0
x(13,23,1) 0
x(13,23,2) 0
x(13,24,1) 0
x(13,24,2) 0
x(13,25,1) 0
x(13,25,2) 0
x(13,26,1) 0
x(13,26,2) 0
x(13,27,1) 0
x(13,27,2) 0
x(13,28,1) 1.5935118852518913e-08
x(13,28,2) 2.3902678208662933e-08
x(13,29,1) 0
x(13,29,2) 9.9999992829301920e-01
x(13,30,1) 0
x(13,30,2) 0
x(13,31,1) 0
x(13,31,2) 0
x(13,32,1) 0
x(13,32,2) 3.1868744518963544e-08
x(13,33,1) 0
x(13,33,2) 0
x(13,34,1) 0
x(13,34,2) 0
x(14,1,1) 0
x(14,1,2) 0
x(14,2,1) 0
x(14,2,2) 0
x(14,3,1) 0
x(14,3,2) 0
x(14,4,1) 0
x(14,4,2) 0
x(14,5,1) 0
x(14,5,2) 0
x(14,6,1) 0
x(14,6,2) 0
x(14,7,1) 0
x(14,7,2) 0
x(14,8,1) 9.9999998406693791e-01
x(14,8,2) 0
x(14,9,1) 0
x(14,9,2) 0
x(14,10,1) 0
x(14,10,2) 0
x(14,11,1) 0
x(14,11,2) 0
x(14,12,1) 0
x(14,12,2) 1.5932216386108388e-08
x(14,13,1) 0
x(14,13,2) 0
x(14,15,1) 0
x(14,15,2) 0
x(14,16,1) 0
x(14,16,2) 0
x(14,17,1) 0
x(14,17,2) 0
x(14,18,1) 0
x(14,18,2) 0
x(14,19,1) 0
x(14,19,2) 0
x(14,20,1) 0
x(14,20,2) 0
x(14,21,1) 0
x(14,21,2) 0
x(14,22,1) 0
x(14,22,2) 0
x(14,23,1) 0
x(14,23,2) 0
x(14,24,1) 0
x(14,24,2) 0
x(14,25,1) 0
x(14,25,2) 0
x(14,26,1) 0
x(14,26,2) 0
x(14,27,1) 0
x(14,27,2) 0
x(14,28,1) 0
x(14,28,2) 0
x(14,29,1) 0
x(14,29,2) 0
x(14,30,1) 0
x(14,30,2) 0
x(14,31,1) 0
x(14,31,2) 0
x(14,32,1) 0
x(14,32,2) 0
x(14,33,1) 0
x(14,33,2) 0
x(14,34,1) 0
x(14,34,2) 0
x(15,1,1) 0
x(15,1,2) 0
x(15,2,1) 0
x(15,2,2) 0
x(15,3,1) 0
x(15,3,2) 0
x(15,4,1) 0
x(15,4,2) 0
x(15,5,1) 0
x(15,5,2) 0
x(15,6,1) 0
x(15,6,2) 0
x(15,7,1) 0
x(15,7,2) 0
x(15,8,1) 0
x(15,8,2) 0
x(15,9,1) 0
x(15,9,2) 0
x(15,10,1) 0
x(15,10,2) 0
x(15,11,1) 0
x(15,11,2) 0
x(15,12,1) 0
x(15,12,2) 0
x(15,13,1) 0
x(15,13,2) 0
x(15,14,1) 0
x(15,14,2) 0
x(15,16,1) 0
x(15,16,2) 0
x(15,17,1) 0
x(15,17,2) 0
x(15,18,1) 0
x(15,18,2) 0
x(15,19,1) 0
x(15,19,2) 0
x(15,20,1) 0
x(15,20,2) 0
x(15,21,1) 0
x(15,21,2) 0
x(15,22,1) 0
x(15,22,2) 0
x(15,23,1) 0
x(15,23,2) 0
x(15,24,1) 0
x(15,24,2) 0
x(15,25,1) 0
x(15,25,2) 0
x(15,26,1) 0
x(15,26,2) 0
x(15,27,1) 0
x(15,27,2) 0
x(15,28,1) 0
x(15,28,2) 0
x(15,29,1) 0
x(15,29,2) 0
x(15,30,1) 0
x(15,30,2) 0
x(15,31,1) 9.9999996016220294e-01
x(15,31,2) 3.9837797055973513e-08
x(15,32,1) 0
x(15,32,2) 0
x(15,33,1) 0
x(15,33,2) 0
x(15,34,1) 0
x(15,34,2) 0
x(16,1,1) 0
x(16,1,2) 0
x(16,2,1) 0
x(16,2,2) 0
x(16,3,1) 0
x(16,3,2) 0
x(16,4,1) 0
x(16,4,2) 0
x(16,5,1) 0
x(16,5,2) 0
x(16,6,1) 0
x(16,6,2) 0
x(16,7,1) 0
x(16,7,2) 0
x(16,8,1) 0
x(16,8,2) 0
x(16,9,1) 0
x(16,9,2) 0
x(16,10,1) 0
x(16,10,2) 0
x(16,11,1) 0
x(16,11,2) 0
x(16,12,1) 0
x(16,12,2) 0
x(16,13,1) 0
x(16,13,2) 0
x(16,14,1) 0
x(16,14,2) 0
x(16,15,1) 9.9999996016220305e-01
x(16,15,2) 3.9837796895952234e-08
x(16,17,1) 0
x(16,17,2) 0
x(16,18,1) 0
x(16,18,2) 0
x(16,19,1) 0
x(16,19,2) 0
x(16,20,1) 0
x(16,20,2) 0
x(16,21,1) 0
x(16,21,2) 0
x(16,22,1) 0
x(16,22,2) 0
x(16,23,1) 0
x(16,23,2) 0
x(16,24,1) 0
x(16,24,2) 0
x(16,25,1) 0
x(16,25,2) 0
x(16,26,1) 0
x(16,26,2) 0
x(16,27,1) 0
x(16,27,2) 0
x(16,28,1) 0
x(16,28,2) 0
x(16,29,1) 0
x(16,29,2) 0
x(16,30,1) 0
x(16,30,2) 0
x(16,31,1) 0
x(16,31,2) 0
x(16,32,1) 0
x(16,32,2) 0
x(16,33,1) 0
x(16,33,2) 0
x(16,34,1) 0
x(16,34,2) 0
x(17,1,1) 0
x(17,1,2) 0
x(17,2,1) 0
x(17,2,2) 0
x(17,3,1) 0
x(17,3,2) 0
x(17,4,1) 0
x(17,4,2) 0
x(17,5,1) 0
x(17,5,2) 0
x(17,6,1) 0
x(17,6,2) 0
x(17,7,1) 0
x(17,7,2) 0
x(17,8,1) 0
x(17,8,2) 0
x(17,9,1) 0
x(17,9,2) 0
x(17,10,1) 0
x(17,10,2) 0
x(17,11,1) 0
x(17,11,2) 0
x(17,12,1) 0
x(17,12,2) 0
x(17,13,1) 0
x(17,13,2) 0
x(17,14,1) 0
x(17,14,2) 0
x(17,15,1) 0
x(17,15,2) 0
x(17,16,1) 0
x(17,16,2) 0
x(17,18,1) 0
x(17,18,2) 0
x(17,19,1) 0
x(17,19,2) 0
x(17,20,1) 0
x(17,20,2) 0
x(17,21,1) 0
x(17,21,2) 0
x(17,22,1) 0
x(17,22,2) 0
x(17,23,1) 0
x(17,23,2) 9.9999994093437850e-01
x(17,24,1) 0
x(17,24,2) 0
x(17,25,1) 0
x(17,25,2) 5.9067580341874563e-08
x(17,26,1) 0
x(17,26,2) 0
x(17,27,1) 0
x(17,27,2) 0
x(17,28,1) 0
x(17,28,2) 0
x(17,29,1) 0
x(17,29,2) 0
x(17,30,1) 0
x(17,30,2) 0
x(17,31,1) 0
x(17,31,2) 0
x(17,32,1) 0
x(17,32,2) 0
x(17,33,1) 0
x(17,33,2) 0
x(17,34,1) 0
x(17,34,2) 0
x(18,1,1) 0
x(18,1,2) 0
x(18,2,1) 0
x(18,2,2) 0
x(18,3,1) 0
x(18,3,2) 0
x(18,4,1) 0
x(18,4,2) 1.8670834434075800e-08
x(18,5,1) 0
x(18,5,2) 0
x(18,6,1) 0
x(18,6,2) 0
x(18,7,1) 0
x(18,7,2) 0
x(18,8,1) 0
x(18,8,2) 0
x(18,9,1) 0
x(18,9,2) 0
x(18,10,1) 0
x(18,10,2) 0
x(18,11,1) 0
x(18,11,2) 0
x(18,12,1) 0
x(18,12,2) 0
x(18,13,1) 0
x(18,13,2) 0
x(18,14,1) 0
x(18,14,2) 0
x(18,15,1) 0
x(18,15,2) 0
x(18,16,1) 0
x(18,16,2) 0
x(18,17,1) 0
x(18,17,2) 0
x(18,19,1) 0
x(18,19,2) 0
x(18,20,1) 0
x(18,20,2) 9.9999998133148249e-01
x(18,21,1) 0
x(18,21,2) 0
x(18,22,1) 0
x(18,22,2) 0
x(18,23,1) 0
x(18,23,2) 0
x(18,24,1) 0
x(18,24,2) 0
x(18,25,1) 0
x(18,25,2) 0
x(18,26,1) 0
x(18,26,2) 0
x(18,27,1) 0
x(18,27,2) 0
x(18,28,1) 0
x(18,28,2) 0
x(18,29,1) 0
x(18,29,2) 0
x(18,30,1) 0
x(18,30,2) 0
x(18,31,1) 0
x(18,31,2) 0
x(18,32,1) 0
x(18,32,2) 0
x(18,33,1) 0
x(18,33,2) 0
x(18,34,1) 0
x(18,34,2) 0
x(19,1,1) 0
x(19,1,2) 0
x(19,2,1) 0
x(19,2,2) 0
x(19,3,1) 0
x(19,3,2) 0
x(19,4,1) 0
x(19,4,2) 1.6157531158590631e-08
x(19,5,1) 0
x(19,5,2) 0
x(19,6,1) 0
x(19,6,2) 0
x(19,7,1) 0
x(19,7,2) 0
x(19,8,1) 0
x(19,8,2) 0
x(19,9,1) 0
x(19,9,2) 0
x(19,10,1) 0
x(19,10,2) 0
x(19,11,1) 0
x(19,11,2) 0
x(19,12,1) 0
x(19,12,2) 0
x(19,13,1) 0
x(19,13,2) 0
x(19,14,1) 0
x(19,14,2) 0
x(19,15,1) 0
x(19,15,2) 0
x(19,16,1) 0
x(19,16,2) 0
x(19,17,1) 0
x(19,17,2) 9.9999998384166666e-01
x(19,18,1) 0
x(19,18,2) 0
x(19,20,1) 0
x(19,20,2) 0
x(19,21,1) 0
x(19,21,2) 0
x(19,22,1) 0
x(19,22,2) 0
x(19,23,1) 0
x(19,23,2) 0
x(19,24,1) 0
x(19,24,2) 0
x(19,25,1) 0
x(19,25,2) 0
x(19,26,1) 0
x(19,26,2) 0
x(19,27,1) 0
x(19,27,2) 0
x(19,28,1) 0
x(19,28,2) 0
x(19,29,1) 0
x(19,29,2) 0
x(19,30,1) 0
x(19,30,2) 0
x(19,31,1) 0
x(19,31,2) 0
x(19,32,1) 0
x(19,32,2) 0
x(19,33,1) 0
x(19,33,2) 0
x(19,34,1) 0
x(19,34,2) 0
x(20,1,1) 0
x(20,1,2) 0
x(20,2,1) 0
x(20,2,2) 0
x(20,3,1) 0
x(20,3,2) 0
x(20,4,1) 0
x(20,4,2) 0
x(20,5,1) 0
x(20,5,2) 0
x(20,6,1) 0
x(20,6,2) 0
x(20,7,1) 0
x(20,7,2) 0
x(20,8,1) 0
x(20,8,2) 0
x(20,9,1) 0
x(20,9,2) 0
x(20,10,1) 0
x(20,10,2) 0
x(20,11,1) 0
x(20,11,2) 0
x(20,12,1) 0
x(20,12,2) 0
x(20,13,1) 0
x(20,13,2) 9.9999998406723467e-01
x(20,14,1) 0
x(20,14,2) 1.5934405253943306e-08
x(20,15,1) 0
x(20,15,2) 0
x(20,16,1) 0
x(20,16,2) 0
x(20,17,1) 0
x(20,17,2) 0
x(20,18,1) 0
x(20,18,2) 0
x(20,19,1) 0
x(20,19,2) 0
x(20,21,1) 0
x(20,21,2) 0
x(20,22,1) 0
x(20,22,2) 0
x(20,23,1) 0
x(20,23,2) 0
x(20,24,1) 0
x(20,24,2) 0
x(20,25,1) 0
x(20,25,2) 0
x(20,26,1) 0
x(20,26,2) 0
x(20,27,1) 0
x(20,27,2) 0
x(20,28,1) 0
x(20,28,2) 0
x(20,29,1) 0
x(20,29,2) 0
x(20,30,1) 0
x(20,30,2) 0
x(20,31,1) 0
x(20,31,2) 0
x(20,32,1) 0
x(20,32,2) 0
x(20,33,1) 0
x(20,33,2) 0
x(20,34,1) 0
x(20,34,2) 0
x(21,1,1) 0
x(21,1,2) 0
x(21,2,1) 0
x(21,2,2) 0
x(21,3,1) 0
x(21,3,2) 0
x(21,4,1) 0
x(21,4,2) 0
x(21,5,1) 0
x(21,5,2) 0
x(21,6,1) 0
x(21,6,2) 0
x(21,7,1) 0
x(21,7,2) 0
x(21,8,1) 0
x(21,8,2) 0
x(21,9,1) 0
x(21,9,2) 0
x(21,10,1) 0
x(21,10,2) 0
x(21,11,1) 0
x(21,11,2) 0
x(21,12,1) 0
x(21,12,2) 0
x(21,13,1) 0
x(21,13,2) 0
x(21,14,1) 0
x(21,14,2) 0
x(21,15,1) 0
x(21,15,2) 0
x(21,16,1) 0
x(21,16,2) 0
x(21,17,1) 0
x(21,17,2) 0
x(21,18,1) 0
x(21,18,2) 0
x(21,19,1) 0
x(21,19,2) 0
x(21,20,1) 0
x(21,20,2) 0
x(21,22,1) 0
x(21,22,2) 0
x(21,23,1) 0
x(21,23,2) 0
x(21,24,1) 0
x(21,24,2) 0
x(21,25,1) 0
x(21,25,2) 0
x(21,26,1) 0
x(21,26,2) 0
x(21,27,1) 0
x(21,27,2) 0
x(21,28,1) 0
x(21,28,2) 0
x(21,29,1) 0
x(21,29,2) 0
x(21,30,1) 0
x(21,30,2) 0
x(21,31,1) 0
x(21,31,2) 0
x(21,32,1) 0
x(21,32,2) 0
x(21,33,1) 0
x(21,33,2) 0
x(21,34,1) 3.9837797025336913e-08
x(21,34,2) 9.9999996016308190e-01
x(22,1,1) 0
x(22,1,2) 0
x(22,2,1) 0
x(22,2,2) 0
x(22,3,1) 0
x(22,3,2) 0
x(22,4,1) 0
x(22,4,2) 0
x(22,5,1) 7.9642465531975107e-09
x(22,5,2) 0
x(22,6,1) 0
x(22,6,2) 0
x(22,7,1) 0
x(22,7,2) 0
x(22,8,1) 7.9675595735093068e-09
x(22,8,2) 0
x(22,9,1) 0
x(22,9,2) 0
x(22,10,1) 0
x(22,10,2) 0
x(22,11,1) 0
x(22,11,2) 0
x(22,12,1) 0
x(22,12,2) 0
x(22,13,1) 0
x(22,13,2) 0
x(22,14,1) 9.9999998406685076e-01
x(22,14,2) 0
x(22,15,1) 0
x(22,15,2) 0
x(22,16,1) 0
x(22,16,2) 0
x(22,17,1) 0
x(22,17,2) 0
x(22,18,1) 0
x(22,18,2) 0
x(22,19,1) 0
x(22,19,2) 0
x(22,20,1) 0
x(22,20,2) 0
x(22,21,1) 0
x(22,21,2) 0
x(22,23,1) 0
x(22,23,2) 0
x(22,24,1) 0
x(22,24,2) 0
x(22,25,1) 0
x(22,25,2) 0
x(22,26,1) 0
x(22,26,2) 0
x(22,27,1) 0
x(22,27,2) 0
x(22,28,1) 0
x(22,28,2) 0
x(22,29,1) 0
x(22,29,2) 0
x(22,30,1) 0
x(22,30,2) 0
x(22,31,1) 0
x(22,31,2) 0
x(22,32,1) 0
x(22,32,2) 0
x(22,33,1) 0
x(22,33,2) 0
x(22,34,1) 0
x(22,34,2) 0
x(23,1,1) 0
x(23,1,2) 0
x(23,2,1) 0
x(23,2,2) 9.9999994093124933e-01
x(23,3,1) 0
x(23,3,2) 0
x(23,4,1) 0
x(23,4,2) 5.9067706979218873e-08
x(23,5,1) 0
x(23,5,2) 0
x(23,6,1) 0
x(23,6,2) 0
x(23,7,1) 0
x(23,7,2) 0
x(23,8,1) 0
x(23,8,2) 0
x(23,9,1) 0
x(23,9,2) 0
x(23,10,1) 0
x(23,10,2) 0
x(23,11,1) 0
x(23,11,2) 0
x(23,12,1) 0
x(23,12,2) 0
x(23,13,1) 0
x(23,13,2) 0
x(23,14,1) 0
x(23,14,2) 0
x(23,15,1) 0
x(23,15,2) 0
x(23,16,1) 0
x(23,16,2) 0
x(23,17,1) 0
x(23,17,2) 0
x(23,18,1) 0
x(23,18,2) 0
x(23,19,1) 0
x(23,19,2) 0
x(23,20,1) 0
x(23,20,2) 0
x(23,21,1) 0
x(23,21,2) 0
x(23,22,1) 0
x(23,22,2) 0
x(23,24,1) 0
x(23,24,2) 0
x(23,25,1) 0
x(23,25,2) 0
x(23,26,1) 0
x(23,26,2) 0
x(23,27,1) 0
x(23,27,2) 0
x(23,28,1) 0
x(23,28,2) 0
x(23,29,1) 0
x(23,29,2) 0
x(23,30,1) 0
x(23,30,2) 0
x(23,31,1) 0
x(23,31,2) 0
x(23,32,1) 0
x(23,32,2) 0
x(23,33,1) 0
x(23,33,2) 0
x(23,34,1) 0
x(23,34,2) 0
x(24,1,1) 0
x(24,1,2) 0
x(24,2,1) 0
x(24,2,2) 0
x(24,3,1) 0
x(24,3,2) 0
x(24,4,1) 0
x(24,4,2) 0
x(24,5,1) 3.1870237707760104e-08
x(24,5,2) 0
x(24,6,1) 0
x(24,6,2) 0
x(24,7,1) 0
x(24,7,2) 0
x(24,8,1) 0
x(24,8,2) 0
x(24,9,1) 0
x(24,9,2) 0
x(24,10,1) 0
x(24,10,2) 0
x(24,11,1) 0
x(24,11,2) 0
x(24,12,1) 0
x(24,12,2) 0
x(24,13,1) 0
x(24,13,2) 0
x(24,14,1) 0
x(24,14,2) 0
x(24,15,1) 0
x(24,15,2) 0
x(24,16,1) 9.9999996016381065e-01
x(24,16,2) 0
x(24,17,1) 0
x(24,17,2) 0
x(24,18,1) 0
x(24,18,2) 0
x(24,19,1) 0
x(24,19,2) 0
x(24,20,1) 0
x(24,20,2) 0
x(24,21,1) 0
x(24,21,2) 0
x(24,22,1) 0
x(24,22,2) 0
x(24,23,1) 0
x(24,23,2) 0
x(24,25,1) 0
x(24,25,2) 0
x(24,26,1) 0
x(24,26,2) 0
x(24,27,1) 0
x(24,27,2) 0
x(24,28,1) 0
x(24,28,2) 0
x(24,29,1) 0
x(24,29,2) 7.9661559343324259e-09
x(24,30,1) 0
x(24,30,2) 0
x(24,31,1) 0
x(24,31,2) 0
x(24,32,1) 0
x(24,32,2) 0
x(24,33,1) 0
x(24,33,2) 0
x(24,34,1) 0
x(24,34,2) 0
x(25,1,1) 0
x(25,1,2) 0
x(25,2,1) 0
x(25,2,2) 5.9068750668522796e-08
x(25,3,1) 0
x(25,3,2) 0
x(25,4,1) 0
x(25,4,2) 0
x(25,5,1) 0
x(25,5,2) 0
x(25,6,1) 0
x(25,6,2) 0
x(25,7,1) 0
x(25,7,2) 9.9999990120495097e-01
x(25,8,1) 0
x(25,8,2) 0
x(25,9,1) 0
x(25,9,2) 0
x(25,10,1) 0
x(25,10,2) 0
x(25,11,1) 0
x(25,11,2) 0
x(25,12,1) 0
x(25,12,2) 0
x(25,13,1) 0
x(25,13,2) 0
x(25,14,1) 0
x(25,14,2) 0
x(25,15,1) 0
x(25,15,2) 0
x(25,16,1) 0
x(25,16,2) 0
x(25,17,1) 0
x(25,17,2) 0
x(25,18,1) 0
x(25,18,2) 3.9736998108566833e-08
x(25,19,1) 0
x(25,19,2) 0
x(25,20,1) 0
x(25,20,2) 0
x(25,21,1) 0
x(25,21,2) 0
x(25,22,1) 0
x(25,22,2) 0
x(25,23,1) 0
x(25,23,2) 0
x(25,24,1) 0
x(25,24,2) 0
x(25,26,1) 0
x(25,26,2) 0
x(25,27,1) 0
x(25,27,2) 0
x(25,28,1) 0
x(25,28,2) 0
x(25,29,1) 0
x(25,29,2) 0
x(25,30,1) 0
x(25,30,2) 0
x(25,31,1) 0
x(25,31,2) 0
x(25,32,1) 0
x(25,32,2) 0
x(25,33,1) 0
x(25,33,2) 0
x(25,34,1) 0
x(25,34,2) 0
x(26,1,1) 0
x(26,1,2) 0
x(26,2,1) 0
x(26,2,2) 0
x(26,3,1) 0
x(26,3,2) 0
x(26,4,1) 0
x(26,4,2) 0
x(26,5,1) 0
x(26,5,2) 0
x(26,6,1) 0
x(26,6,2) 0
x(26,7,1) 0
x(26,7,2) 0
x(26,8,1) 0
x(26,8,2) 0
x(26,9,1) 0
x(26,9,2) 0
x(26,10,1) 0
x(26,10,2) 0
x(26,11,1) 0
x(26,11,2) 0
x(26,12,1) 0
x(26,12,2) 0
x(26,13,1) 0
x(26,13,2) 0
x(26,14,1) 0
x(26,14,2) 0
x(26,15,1) 0
x(26,15,2) 0
x(26,16,1) 0
x(26,16,2) 0
x(26,17,1) 0
x(26,17,2) 0
x(26,18,1) 0
x(26,18,2) 0
x(26,19,1) 0
x(26,19,2) 0
x(26,20,1) 0
x(26,20,2) 0
x(26,21,1) 0
x(26,21,2) 0
x(26,22,1) 0
x(26,22,2) 0
x(26,23,1) 0
x(26,23,2) 0
x(26,24,1) 0
x(26,24,2) 0
x(26,25,1) 0
x(26,25,2) 0
x(26,27,1) 0
x(26,27,2) 1
x(26,28,1) 0
x(26,28,2) 0
x(26,29,1) 0
x(26,29,2) 0
x(26,30,1) 0
x(26,30,2) 0
x(26,31,1) 0
x(26,31,2) 0
x(26,32,1) 0
x(26,32,2) 0
x(26,33,1) 0
x(26,33,2) 0
x(26,34,1) 0
x(26,34,2) 0
x(27,1,1) 0
x(27,1,2) 0
x(27,2,1) 0
x(27,2,2) 0
x(27,3,1) 0
x(27,3,2) 1
x(27,4,1) 0
x(27,4,2) 0
x(27,5,1) 0
x(27,5,2) 0
x(27,6,1) 0
x(27,6,2) 0
x(27,7,1) 0
x(27,7,2) 0
x(27,8,1) 0
x(27,8,2) 0
x(27,9,1) 0
x(27,9,2) 0
x(27,10,1) 0
x(27,10,2) 0
x(27,11,1) 0
x(27,11,2) 0
x(27,12,1) 0
x(27,12,2) 0
x(27,13,1) 0
x(27,13,2) 0
x(27,14,1) 0
x(27,14,2) 0
x(27,15,1) 0
x(27,15,2) 0
x(27,16,1) 0
x(27,16,2) 0
x(27,17,1) 0
x(27,17,2) 0
x(27,18,1) 0
x(27,18,2) 0
x(27,19,1) 0
x(27,19,2) 0
x(27,20,1) 0
x(27,20,2) 0
x(27,21,1) 0
x(27,21,2) 0
x(27,22,1) 0
x(27,22,2) 0
x(27,23,1) 0
x(27,23,2) 0
x(27,24,1) 0
x(27,24,2) 0
x(27,25,1) 0
x(27,25,2) 0
x(27,26,1) 0
x(27,26,2) 0
x(27,28,1) 0
x(27,28,2) 0
x(27,29,1) 0
x(27,29,2) 0
x(27,30,1) 0
x(27,30,2) 0
x(27,31,1) 0
x(27,31,2) 0
x(27,32,1) 0
x(27,32,2) 0
x(27,33,1) 0
x(27,33,2) 0
x(27,34,1) 0
x(27,34,2) 0
x(28,1,1) 0
x(28,1,2) 0
x(28,2,1) 0
x(28,2,2) 0
x(28,3,1) 0
x(28,3,2) 0
x(28,4,1) 0
x(28,4,2) 0
x(28,5,1) 0
x(28,5,2) 0
x(28,6,1) 0
x(28,6,2) 0
x(28,7,1) 0
x(28,7,2) 0
x(28,8,1) 0
x(28,8,2) 0
x(28,9,1) 0
x(28,9,2) 0
x(28,10,1) 0
x(28,10,2) 0
x(28,11,1) 0
x(28,11,2) 0
x(28,12,1) 0
x(28,12,2) 0
x(28,13,1) 0
x(28,13,2) 0
x(28,14,1) 0
x(28,14,2) 0
x(28,15,1) 0
x(28,15,2) 0
x(28,16,1) 0
x(28,16,2) 0
x(28,17,1) 0
x(28,17,2) 0
x(28,18,1) 0
x(28,18,2) 0
x(28,19,1) 0
x(28,19,2) 0
x(28,20,1) 0
x(28,20,2) 0
x(28,21,1) 0
x(28,21,2) 0
x(28,22,1) 0
x(28,22,2) 0
x(28,23,1) 0
x(28,23,2) 0
x(28,24,1) 1.5935118852518913e-08
x(28,24,2) 0
x(28,25,1) 0
x(28,25,2) 0
x(28,26,1) 0
x(28,26,2) 0
x(28,27,1) 0
x(28,27,2) 0
x(28,29,1) 0
x(28,29,2) 2.3902678208662933e-08
x(28,30,1) 0
x(28,30,2) 0
x(28,31,1) 0
x(28,31,2) 0
x(28,32,1) 9.9999996016405035e-01
x(28,32,2) 0
x(28,33,1) 0
x(28,33,2) 0
x(28,34,1) 0
x(28,34,2) 0
x(29,1,1) 0
x(29,1,2) 0
x(29,2,1) 0
x(29,2,2) 0
x(29,3,1) 0
x(29,3,2) 0
x(29,4,1) 0
x(29,4,2) 0
x(29,5,1) 0
x(29,5,2) 9.9999994422708383e-01
x(29,6,1) 0
x(29,6,2) 0
x(29,7,1) 0
x(29,7,2) 0
x(29,8,1) 0
x(29,8,2) 0
x(29,9,1) 0
x(29,9,2) 0
x(29,10,1) 0
x(29,10,2) 0
x(29,11,1) 0
x(29,11,2) 0
x(29,12,1) 0
x(29,12,2) 0
x(29,13,1) 0
x(29,13,2) 0
x(29,14,1) 0
x(29,14,2) 0
x(29,15,1) 0
x(29,15,2) 0
x(29,16,1) 0
x(29,16,2) 3.1869067655996383e-08
x(29,17,1) 0
x(29,17,2) 0
x(29,18,1) 0
x(29,18,2) 0
x(29,19,1) 0
x(29,19,2) 0
x(29,20,1) 0
x(29,20,2) 0
x(29,21,1) 1.5935118852518913e-08
x(29,21,2) 0
x(29,22,1) 0
x(29,22,2) 0
x(29,23,1) 0
x(29,23,2) 0
x(29,24,1) 0
x(29,24,2) 0
x(29,25,1) 0
x(29,25,2) 0
x(29,26,1) 0
x(29,26,2) 0
x(29,27,1) 0
x(29,27,2) 0
x(29,28,1) 0
x(29,28,2) 0
x(29,30,1) 0
x(29,30,2) 0
x(29,31,1) 0
x(29,31,2) 0
x(29,32,1) 0
x(29,32,2) 7.9675593514063526e-09
x(29,33,1) 0
x(29,33,2) 0
x(29,34,1) 0
x(29,34,2) 0
x(30,1,1) 0
x(30,1,2) 0
x(30,2,1) 0
x(30,2,2) 0
x(30,3,1) 0
x(30,3,2) 0
x(30,4,1) 0
x(30,4,2) 0
x(30,5,1) 0
x(30,5,2) 0
x(30,6,1) 0
x(30,6,2) 0
x(30,7,1) 0
x(30,7,2) 0
x(30,8,1) 0
x(30,8,2) 7.9675593200097595e-09
x(30,9,1) 0
x(30,9,2) 0
x(30,10,1) 0
x(30,10,2) 0
x(30,11,1) 0
x(30,11,2) 0
x(30,12,1) 9.9999997609844160e-01
x(30,12,2) 7.9664397985245608e-09
x(30,13,1) 7.9675592790096061e-09
x(30,13,2) 0
x(30,14,1) 0
x(30,14,2) 0
x(30,15,1) 0
x(30,15,2) 0
x(30,16,1) 0
x(30,16,2) 0
x(30,17,1) 0
x(30,17,2) 0
x(30,18,1) 0
x(30,18,2) 0
x(30,19,1) 0
x(30,19,2) 0
x(30,20,1) 0
x(30,20,2) 0
x(30,21,1) 0
x(30,21,2) 0
x(30,22,1) 0
x(30,22,2) 0
x(30,23,1) 0
x(30,23,2) 0
x(30,24,1) 0
x(30,24,2) 0
x(30,25,1) 0
x(30,25,2) 0
x(30,26,1) 0
x(30,26,2) 0
x(30,27,1) 0
x(30,27,2) 0
x(30,28,1) 0
x(30,28,2) 0
x(30,29,1) 0
x(30,29,2) 0
x(30,31,1) 0
x(30,31,2) 0
x(30,32,1) 0
x(30,32,2) 0
x(30,33,1) 0
x(30,33,2) 0
x(30,34,1) 0
x(30,34,2) 0
x(31,1,1) 0
x(31,1,2) 0
x(31,2,1) 0
x(31,2,2) 0
x(31,3,1) 0
x(31,3,2) 0
x(31,4,1) 0
x(31,4,2) 0
x(31,5,1) 0
x(31,5,2) 0
x(31,6,1) 0
x(31,6,2) 0
x(31,7,1) 0
x(31,7,2) 0
x(31,8,1) 0
x(31,8,2) 0
x(31,9,1) 0
x(31,9,2) 0
x(31,10,1) 0
x(31,10,2) 0
x(31,11,1) 0
x(31,11,2) 0
x(31,12,1) 0
x(31,12,2) 0
x(31,13,1) 0
x(31,13,2) 0
x(31,14,1) 0
x(31,14,2) 0
x(31,15,1) 0
x(31,15,2) 0
x(31,16,1) 0
x(31,16,2) 0
x(31,17,1) 0
x(31,17,2) 0
x(31,18,1) 0
x(31,18,2) 0
x(31,19,1) 0
x(31,19,2) 0
x(31,20,1) 0
x(31,20,2) 0
x(31,21,1) 0
x(31,21,2) 0
x(31,22,1) 0
x(31,22,2) 0
x(31,23,1) 0
x(31,23,2) 0
x(31,24,1) 0
x(31,24,2) 0
x(31,25,1) 0
x(31,25,2) 0
x(31,26,1) 0
x(31,26,2) 0
x(31,27,1) 0
x(31,27,2) 0
x(31,28,1) 0
x(31,28,2) 0
x(31,29,1) 0
x(31,29,2) 0
x(31,30,1) 0
x(31,30,2) 0
x(31,32,1) 0
x(31,32,2) 0
x(31,33,1) 0
x(31,33,2) 0
x(31,34,1) 9.9999996016306836e-01
x(31,34,2) 3.9836931604700284e-08
x(32,1,1) 0
x(32,1,2) 0
x(32,2,1) 0
x(32,2,2) 0
x(32,3,1) 0
x(32,3,2) 0
x(32,4,1) 0
x(32,4,2) 0
x(32,5,1) 0
x(32,5,2) 1.5935119113130725e-08
x(32,6,1) 0
x(32,6,2) 0
x(32,7,1) 0
x(32,7,2) 0
x(32,8,1) 0
x(32,8,2) 0
x(32,9,1) 0
x(32,9,2) 0
x(32,10,1) 0
x(32,10,2) 0
x(32,11,1) 0
x(32,11,2) 0
x(32,12,1) 0
x(32,12,2) 0
x(32,13,1) 0
x(32,13,2) 0
x(32,14,1) 0
x(32,14,2) 0
x(32,15,1) 0
x(32,15,2) 0
x(32,16,1) 0
x(32,16,2) 0
x(32,17,1) 0
x(32,17,2) 0
x(32,18,1) 0
x(32,18,2) 0
x(32,19,1) 0
x(32,19,2) 0
x(32,20,1) 0
x(32,20,2) 0
x(32,21,1) 0
x(32,21,2) 0
x(32,22,1) 0
x(32,22,2) 0
x(32,23,1) 0
x(32,23,2) 0
x(32,24,1) 0
x(32,24,2) 0
x(32,25,1) 0
x(32,25,2) 0
x(32,26,1) 0
x(32,26,2) 0
x(32,27,1) 0
x(32,27,2) 0
x(32,28,1) 9.9999996016405035e-01
x(32,28,2) 0
x(32,29,1) 0
x(32,29,2) 2.3899298666754528e-08
x(32,30,1) 0
x(32,30,2) 0
x(32,31,1) 0
x(32,31,2) 0
x(32,33,1) 0
x(32,33,2) 0
x(32,34,1) 0
x(32,34,2) 0
x(33,1,1) 0
x(33,1,2) 0
x(33,2,1) 0
x(33,2,2) 0
x(33,3,1) 0
x(33,3,2) 0
x(33,4,1) 0
x(33,4,2) 2.4239583313465119e-08
x(33,5,1) 0
x(33,5,2) 0
x(33,6,1) 0
x(33,6,2) 0
x(33,7,1) 0
x(33,7,2) 9.8808329701850358e-08
x(33,8,1) 0
x(33,8,2) 0
x(33,9,1) 0
x(33,9,2) 0
x(33,10,1) 0
x(33,10,2) 0
x(33,11,1) 0
x(33,11,2) 0
x(33,12,1) 0
x(33,12,2) 0
x(33,13,1) 0
x(33,13,2) 0
x(33,14,1) 0
x(33,14,2) 0
x(33,15,1) 0
x(33,15,2) 0
x(33,16,1) 0
x(33,16,2) 0
x(33,17,1) 0
x(33,17,2) 0
x(33,18,1) 0
x(33,18,2) 0
x(33,19,1) 0
x(33,19,2) 0
x(33,20,1) 0
x(33,20,2) 1.8670834878165010e-08
x(33,21,1) 0
x(33,21,2) 0
x(33,22,1) 0
x(33,22,2) 0
x(33,23,1) 0
x(33,23,2) 0
x(33,24,1) 0
x(33,24,2) 0
x(33,25,1) 0
x(33,25,2) 9.9999985828272897e-01
x(33,26,1) 0
x(33,26,2) 0
x(33,27,1) 0
x(33,27,2) 0
x(33,28,1) 0
x(33,28,2) 0
x(33,29,1) 0
x(33,29,2) 0
x(33,30,1) 0
x(33,30,2) 0
x(33,31,1) 0
x(33,31,2) 0
x(33,32,1) 0
x(33,32,2) 0
x(33,34,1) 0
x(33,34,2) 0
x(34,2,1) 0
x(34,2,2) 0
x(34,3,1) 0
x(34,3,2) 0
x(34,4,1) 0
x(34,4,2) 0
x(34,5,1) 0
x(34,5,2) 0
x(34,6,1) 0
x(34,6,2) 0
x(34,7,1) 0
x(34,7,2) 0
x(34,8,1) 0
x(34,8,2) 0
x(34,9,1) 0
x(34,9,2) 0
x(34,10,1) 0
x(34,10,2) 0
x(34,11,1) 0
x(34,11,2) 0
x(34,12,1) 0
x(34,12,2) 0
x(34,13,1) 0
x(34,13,2) 0
x(34,14,1) 0
x(34,14,2) 0
x(34,15,1) 0
x(34,15,2) 0
x(34,16,1) 0
x(34,16,2) 0
x(34,17,1) 0
x(34,17,2) 0
x(34,18,1) 0
x(34,18,2) 0
x(34,19,1) 0
x(34,19,2) 0
x(34,20,1) 0
x(34,20,2) 0
x(34,21,1) 0
x(34,21,2) 0
x(34,22,1) 0
x(34,22,2) 0
x(34,23,1) 0
x(34,23,2) 0
x(34,24,1) 0
x(34,24,2) 0
x(34,25,1) 0
x(34,25,2) 0
x(34,26,1) 0
x(34,26,2) 0
x(34,27,1) 0
x(34,27,2) 0
x(34,28,1) 0
x(34,28,2) 0
x(34,29,1) 0
x(34,29,2) 0
x(34,30,1) 0
x(34,30,2) 0
x(34,31,1) 0
x(34,31,2) 0
x(34,32,1) 0
x(34,32,2) 0
x(34,33,1) 0
x(34,33,2) 0
x(2,2,1) 0
x(2,2,2) 0
x(3,3,1) 0
x(3,3,2) 0
x(4,4,1) 0
x(4,4,2) 0
x(5,5,1) 0
x(5,5,2) 0
x(6,6,1) 0
x(6,6,2) 0
x(7,7,1) 0
x(7,7,2) 0
x(8,8,1) 0
x(8,8,2) 0
x(9,9,1) 0
x(9,9,2) 0
x(10,10,1) 0
x(10,10,2) 0
x(11,11,1) 0
x(11,11,2) 0
x(12,12,1) 0
x(12,12,2) 0
x(13,13,1) 0
x(13,13,2) 0
x(14,14,1) 0
x(14,14,2) 0
x(15,15,1) 0
x(15,15,2) 0
x(16,16,1) 0
x(16,16,2) 0
x(17,17,1) 0
x(17,17,2) 0
x(18,18,1) 0
x(18,18,2) 0
x(19,19,1) 0
x(19,19,2) 0
x(20,20,1) 0
x(20,20,2) 0
x(21,21,1) 0
x(21,21,2) 0
x(22,22,1) 0
x(22,22,2) 0
x(23,23,1) 0
x(23,23,2) 0
x(24,24,1) 0
x(24,24,2) 0
x(25,25,1) 0
x(25,25,2) 0
x(26,26,1) 0
x(26,26,2) 0
x(27,27,1) 0
x(27,27,2) 0
x(28,28,1) 0
x(28,28,2) 0
x(29,29,1) 0
x(29,29,2) 0
x(30,30,1) 0
x(30,30,2) 0
x(31,31,1) 0
x(31,31,2) 0
x(32,32,1) 0
x(32,32,2) 0
x(33,33,1) 0
x(33,33,2) 0
x(1,1,1) 0
x(1,1,2) 0
s(1) 0
s(2) 1.8625499755072099e+02
s(3) 120
s(4) 202
s(5) 3.5700000030834457e+02
s(6) 2.1499999999999997e+02
s(7) 1.3500000086674666e+02
s(8) 2.9300000000000006e+02
s(9) 1.5548400002717972e+02
s(10) 24
s(11) 3.9866999983787537e+01
s(12) 3.2199999985706199e+02
s(13) 3.2000000006992599e+02
s(14) 2.7653099981843684e+02
s(15) 417
s(16) 3.4955099981774447e+02
s(17) 1.6636500000953674e+02
s(18) 2.0203799963094502e+02
s(19) 166
s(20) 252
s(21) 4.0800000030834457e+02
s(22) 266
s(23) 1.8100000086674666e+02
s(24) 3.4100000000000006e+02
s(25) 173
s(26) 4.7223000013351111e+01
s(27) 6.3383000039577148e+01
s(28) 3.7099999985706199e+02
s(29) 3.6800000006992599e+02
s(30) 3.1303000013447655e+02
s(31) 465
s(32) 3.6281699981774449e+02
s(33) 2.1336500000953674e+02
x(1,34,1) 0
x(1,34,2) 0
s(34) 480
x(34,1,1) 0
x(34,1,2) 0
x(34,34,1) 0
x(34,34,2) 0
u(1) 0
u(2) 0
u(3) 0
u(4) 9.9999936121242061e-01
u(5) 0
u(6) 0
u(7) 0
u(8) 9.9999998406488111e-01
u(9) 9.9999994039535522e-01
u(10) 0
u(11) 2
u(12) 1.5935118690901182e-08
u(13) 3
u(14) 2.0000001670146448e+00
u(15) 3
u(16) 0
u(17) 1.6158333338012199e-08
u(18) 5.9999996455874962e+00
u(19) 1.9999999403953552e+00
u(20) 0
u(21) 6
u(22) 6
u(23) 1.9999998818624984e+00
u(24) 3.9999999362595240e+00
u(25) 8.2649996397567303e-08
u(26) 3
u(27) 1
u(28) 1.1951339118354551e-07
u(29) 9.5610713124472113e-08
u(30) 6
u(31) 6
u(32) 9.5610713021791682e-08
u(33) 5.9999995996309998e+00
u(34) 6
